c nIsolatedPIs 8
c maxPI 24
p cnf 72 145
c gate 25 -11 -23 0
-11 -25 0
-23 -25 0
11 23 25 0
c gate 26 -10 -22 0
-10 -26 0
-22 -26 0
10 22 26 0
c gate 27 -25 -26 0
-25 -27 0
-26 -27 0
25 26 27 0
c gate 28 5 17 0
5 -28 0
17 -28 0
-5 -17 28 0
c gate 29 6 18 0
6 -29 0
18 -29 0
-6 -18 29 0
c gate 30 -28 -29 0
-28 -30 0
-29 -30 0
28 29 30 0
c gate 31 -7 -19 0
-7 -31 0
-19 -31 0
7 19 31 0
c gate 32 -6 -18 0
-6 -32 0
-18 -32 0
6 18 32 0
c gate 33 -31 -32 0
-31 -33 0
-32 -33 0
31 32 33 0
c gate 34 -30 33 0
-30 -34 0
33 -34 0
30 -33 34 0
c gate 35 7 19 0
7 -35 0
19 -35 0
-7 -19 35 0
c gate 36 8 20 0
8 -36 0
20 -36 0
-8 -20 36 0
c gate 37 -35 -36 0
-35 -37 0
-36 -37 0
35 36 37 0
c gate 38 -34 37 0
-34 -38 0
37 -38 0
34 -37 38 0
c gate 39 9 21 0
9 -39 0
21 -39 0
-9 -21 39 0
c gate 40 10 22 0
10 -40 0
22 -40 0
-10 -22 40 0
c gate 41 -39 -40 0
-39 -41 0
-40 -41 0
39 40 41 0
c gate 42 -9 -21 0
-9 -42 0
-21 -42 0
9 21 42 0
c gate 43 -8 -20 0
-8 -43 0
-20 -43 0
8 20 43 0
c gate 44 -42 -43 0
-42 -44 0
-43 -44 0
42 43 44 0
c gate 45 41 44 0
41 -45 0
44 -45 0
-41 -44 45 0
c gate 46 -38 45 0
-38 -46 0
45 -46 0
38 -45 46 0
c gate 47 27 -46 0
27 -47 0
-46 -47 0
-27 46 47 0
c gate 48 -27 41 0
-27 -48 0
41 -48 0
27 -41 48 0
c gate 49 -12 -24 0
-12 -49 0
-24 -49 0
12 24 49 0
c gate 50 12 24 0
12 -50 0
24 -50 0
-12 -24 50 0
c gate 51 11 23 0
11 -51 0
23 -51 0
-11 -23 51 0
c gate 52 -50 -51 0
-50 -52 0
-51 -52 0
50 51 52 0
c gate 53 -49 52 0
-49 -53 0
52 -53 0
49 -52 53 0
c gate 54 -48 53 0
-48 -54 0
53 -54 0
48 -53 54 0
c gate 55 -47 54 0
-47 -55 0
54 -55 0
47 -54 55 0
c gate 56 1 13 0
1 -56 0
13 -56 0
-1 -13 56 0
c gate 57 -3 -15 0
-3 -57 0
-15 -57 0
3 15 57 0
c gate 58 3 15 0
3 -58 0
15 -58 0
-3 -15 58 0
c gate 59 2 14 0
2 -59 0
14 -59 0
-2 -14 59 0
c gate 60 -58 59 0
-58 -60 0
59 -60 0
58 -59 60 0
c gate 61 -57 60 0
-57 -61 0
60 -61 0
57 -60 61 0
c gate 62 -56 -61 0
-56 -62 0
-61 -62 0
56 61 62 0
c gate 63 -4 -16 0
-4 -63 0
-16 -63 0
4 16 63 0
c gate 64 4 16 0
4 -64 0
16 -64 0
-4 -16 64 0
c gate 65 58 -64 0
58 -65 0
-64 -65 0
-58 64 65 0
c gate 66 -63 65 0
-63 -66 0
65 -66 0
63 -65 66 0
c gate 67 -5 -17 0
-5 -67 0
-17 -67 0
5 17 67 0
c gate 68 -28 64 0
-28 -68 0
64 -68 0
28 -64 68 0
c gate 69 -67 68 0
-67 -69 0
68 -69 0
67 -68 69 0
c gate 70 -66 -69 0
-66 -70 0
-69 -70 0
66 69 70 0
c gate 71 62 70 0
62 -71 0
70 -71 0
-62 -70 71 0
c gate 72 -55 71 0
-55 -72 0
71 -72 0
55 -71 72 0
c PO
-72 0
